12 66
1 2 3
1 3 5
1 4 4
1 5 2
1 6 5
1 7 2
1 8 4
1 9 3
1 10 4
1 11 4
1 12 3
2 3 3
2 4 4
2 5 5
2 6 5
2 7 1
2 8 1
2 9 3
2 10 5
2 11 2
2 12 1
3 4 3
3 5 2
3 6 4
3 7 2
3 8 3
3 9 1
3 10 3
3 11 3
3 12 4
4 5 5
4 6 1
4 7 4
4 8 2
4 9 4
4 10 1
4 11 3
4 12 2
5 6 5
5 7 2
5 8 3
5 9 2
5 10 1
5 11 1
5 12 2
6 7 2
6 8 4
6 9 2
6 10 3
6 11 5
6 12 5
7 8 2
7 9 3
7 10 3
7 11 4
7 12 1
8 9 5
8 10 4
8 11 5
8 12 5
9 10 2
9 11 1
9 12 1
10 11 2
10 12 2
11 12 4
